c Reduced graph for GEOM100 generated by Cyril Grelier
p edge 75 393
e 1 25
e 1 32
e 1 39
e 1 40
e 1 46
e 1 47
e 1 48
e 1 50
e 1 54
e 1 57
e 1 59
e 1 61
e 1 63
e 1 69
e 2 15
e 2 16
e 2 19
e 2 23
e 2 27
e 2 30
e 2 31
e 2 41
e 2 51
e 2 52
e 2 53
e 2 71
e 2 73
e 3 5
e 3 8
e 3 20
e 3 29
e 3 34
e 3 56
e 3 58
e 3 66
e 3 67
e 3 74
e 3 75
e 4 9
e 4 12
e 4 15
e 4 31
e 4 33
e 4 49
e 4 60
e 4 62
e 4 72
e 4 73
e 5 6
e 5 8
e 5 34
e 5 35
e 5 56
e 5 66
e 5 67
e 5 74
e 5 75
e 6 17
e 6 18
e 6 26
e 6 35
e 6 42
e 6 56
e 6 65
e 6 75
e 7 10
e 7 11
e 7 22
e 7 44
e 7 45
e 7 47
e 7 48
e 7 64
e 8 34
e 8 35
e 8 56
e 8 67
e 8 74
e 8 75
e 9 12
e 9 33
e 9 49
e 9 60
e 9 62
e 9 72
e 10 11
e 10 22
e 10 45
e 10 64
e 10 68
e 11 22
e 11 45
e 11 64
e 11 68
e 12 31
e 12 33
e 12 62
e 12 72
e 13 14
e 13 21
e 13 28
e 13 37
e 13 38
e 14 21
e 14 28
e 14 37
e 14 38
e 15 16
e 15 23
e 15 30
e 15 31
e 15 33
e 15 41
e 15 49
e 15 55
e 15 60
e 15 62
e 15 69
e 15 72
e 15 73
e 16 23
e 16 30
e 16 32
e 16 46
e 16 49
e 16 55
e 16 60
e 16 62
e 16 69
e 16 72
e 16 73
e 17 18
e 17 24
e 17 26
e 17 35
e 17 39
e 17 42
e 17 45
e 17 65
e 17 68
e 17 70
e 18 24
e 18 26
e 18 42
e 18 45
e 18 64
e 18 65
e 18 68
e 18 70
e 19 23
e 19 27
e 19 30
e 19 41
e 19 51
e 19 52
e 19 53
e 19 71
e 20 29
e 20 34
e 20 58
e 20 66
e 20 74
e 21 28
e 21 37
e 21 38
e 23 27
e 23 30
e 23 31
e 23 41
e 23 51
e 23 52
e 23 55
e 23 60
e 23 62
e 23 69
e 23 71
e 23 72
e 23 73
e 24 25
e 24 26
e 24 39
e 24 40
e 24 42
e 24 44
e 24 45
e 24 47
e 24 48
e 24 61
e 24 64
e 24 65
e 24 70
e 25 32
e 25 39
e 25 40
e 25 46
e 25 47
e 25 48
e 25 50
e 25 54
e 25 57
e 25 59
e 25 61
e 25 63
e 25 70
e 26 35
e 26 39
e 26 40
e 26 42
e 26 61
e 26 65
e 26 70
e 27 30
e 27 31
e 27 41
e 27 51
e 27 52
e 27 53
e 27 71
e 28 37
e 28 38
e 29 58
e 29 66
e 29 74
e 30 31
e 30 41
e 30 51
e 30 52
e 30 53
e 30 55
e 30 60
e 30 69
e 30 71
e 30 72
e 30 73
e 31 33
e 31 41
e 31 51
e 31 60
e 31 62
e 31 72
e 31 73
e 32 36
e 32 46
e 32 47
e 32 50
e 32 55
e 32 57
e 32 59
e 32 61
e 32 63
e 32 69
e 33 49
e 33 55
e 33 60
e 33 62
e 33 72
e 33 73
e 34 56
e 34 58
e 34 66
e 34 67
e 34 74
e 34 75
e 35 56
e 35 65
e 35 75
e 36 49
e 36 55
e 36 57
e 36 59
e 36 60
e 36 62
e 36 63
e 37 38
e 39 40
e 39 42
e 39 45
e 39 48
e 39 50
e 39 54
e 39 61
e 39 65
e 39 70
e 40 43
e 40 46
e 40 48
e 40 50
e 40 54
e 40 61
e 40 70
e 41 51
e 41 52
e 41 53
e 41 71
e 42 45
e 42 64
e 42 65
e 42 68
e 42 70
e 43 46
e 43 50
e 43 52
e 43 53
e 43 54
e 43 69
e 44 45
e 44 47
e 44 48
e 44 64
e 45 47
e 45 48
e 45 61
e 45 64
e 45 68
e 45 70
e 46 47
e 46 50
e 46 54
e 46 55
e 46 57
e 46 59
e 46 61
e 46 63
e 46 69
e 47 48
e 47 57
e 47 59
e 47 61
e 47 63
e 47 70
e 48 61
e 48 63
e 48 64
e 48 70
e 49 55
e 49 60
e 49 62
e 49 72
e 49 73
e 50 54
e 50 61
e 50 69
e 50 70
e 51 52
e 51 53
e 51 71
e 52 53
e 52 71
e 53 71
e 54 61
e 54 69
e 55 57
e 55 60
e 55 62
e 55 63
e 55 69
e 55 72
e 55 73
e 56 58
e 56 66
e 56 67
e 56 74
e 56 75
e 57 59
e 57 63
e 57 69
e 58 66
e 58 67
e 58 74
e 58 75
e 59 63
e 60 62
e 60 69
e 60 72
e 60 73
e 61 63
e 61 70
e 62 72
e 62 73
e 63 69
e 64 68
e 64 70
e 65 68
e 65 70
e 66 67
e 66 74
e 66 75
e 67 74
e 67 75
e 69 72
e 69 73
e 72 73
e 74 75
